
Gurobi 9.1.1 (linux64, gurobi_cl) logging started Thu Feb 18 18:51:44 2021

Academic license - for non-commercial use only - expires 2021-04-18
Using license file /opt/gurobi911/gurobi.lic
Set parameter LogFile to value gurobi.log
